File : Instances/p68
Used 67s
24304

1 0 0 1 0 1 0 0 1 0 0 1 1 0 0 1 0 1 0 1 0 0 0 0 1 0 0 0 1 1 
11 19 15 24 5 12 15 28 24 28 29 28 8 3 28 11 3 8 24 0 11 24 5 24 5 11 24 19 29 5 19 19 19 24 28 12 8 8 24 15 11 8 12 29 8 19 3 15 19 17 24 24 0 15 8 12 11 8 11 11 29 0 11 8 3 11 5 17 28 12 11 12 19 8 5 5 8 5 8 24 5 0 8 12 29 8 19 5 24 11 28 19 11 11 0 3 11 12 0 28 28 15 12 11 29 0 29 24 24 3 19 29 11 12 12 8 28 11 17 8 8 11 17 19 19 15 5 11 19 17 28 24 11 8 5 8 3 3 28 17 12 24 12 11 12 5 24 15 0 12 24 17 5 0 8 11 5 15 3 3 3 0 5 0 5 28 5 29 3 15 5 8 19 17 29 0 0 8 29 8 5 15 0 19 12 8 28 5 0 15 5 15 19 29 11 12 11 15 17 19 
